0
Node Left Objective IInf Best_Integer Best_Bound ItCnt Gap
0 0 0.0000 27 0.0000 17
0+ 0 nan nan 938.8131 0.0000 nan 100.00%
0 0 0.0000 27 938.8131 Impl Bds:26 127
0 0 0.0000 27 938.8131 Impl Bds:11 154
0+ 0 nan nan 128.8670 0.0000 nan 100.00%
0 2 0.0000 27 128.8670 0.0000 154 100.00%
CPXPARAM_MIP_Cuts_Implied 19
1
Node Left Objective IInf Best_Integer Best_Bound ItCnt Gap
0 0 0.0000 11 0.0000 17
0+ 0 nan nan 339.1158 0.0000 nan 100.00%
0 0 0.0000 12 339.1158 Impl Bds:11 53
0 0 0.0000 12 339.1158 Impl Bds:2 57
0+ 0 nan nan 321.5067 0.0000 nan 100.00%
0+ 0 nan nan 274.3737 0.0000 nan 100.00%
0+ 0 nan nan 246.5139 0.0000 nan 100.00%
0+ 0 nan nan 146.9666 0.0000 nan 100.00%
0+ 0 nan nan 78.0392 0.0000 nan 100.00%
0+ 0 nan nan 72.2584 0.0000 nan 100.00%
0 0 -1.00000e+75 0 72.2584 0.0000 57 100.00%
0 2 0.0000 12 72.2584 0.0000 57 100.00%
CPXPARAM_MIP_Cuts_Implied 11
2
Node Left Objective IInf Best_Integer Best_Bound ItCnt Gap
0 0 0.0000 28 0.0000 17
0+ 0 nan nan 1173.5814 0.0000 nan 100.00%
0 0 0.0000 28 1173.5814 Impl Bds:28 164
0 0 0.0000 28 1173.5814 Impl Bds:9 187
0+ 0 nan nan 872.0575 0.0000 nan 100.00%
0 2 0.0000 28 872.0575 0.0000 187 100.00%
CPXPARAM_MIP_Cuts_Implied 29
3
Node Left Objective IInf Best_Integer Best_Bound ItCnt Gap
0 0 0.0000 15 0.0000 17
0+ 0 nan nan 326.4207 0.0000 nan 100.00%
0 0 0.0000 15 326.4207 Impl Bds:15 57
0+ 0 nan nan 273.7463 0.0000 nan 100.00%
0 0 0.0000 14 273.7463 Impl Bds:1 77
0+ 0 nan nan 256.8905 0.0000 nan 100.00%
0+ 0 nan nan 235.0635 0.0000 nan 100.00%
0 2 0.0000 14 235.0635 0.0000 77 100.00%
CPXPARAM_MIP_Cuts_Implied 10
4
Node Left Objective IInf Best_Integer Best_Bound ItCnt Gap
0 0 0.0000 10 0.0000 17
0+ 0 nan nan 478.5216 0.0000 nan 100.00%
0 0 0.0000 9 478.5216 Impl Bds:10 37
0+ 0 nan nan 147.7229 0.0000 nan 100.00%
0 2 0.0000 9 147.7229 0.0000 37 100.00%
CPXPARAM_MIP_Cuts_Implied 10
5
Node Left Objective IInf Best_Integer Best_Bound ItCnt Gap
0 0 0.0000 29 0.0000 17
0+ 0 nan nan 803.7695 0.0000 nan 100.00%
0 0 0.0000 28 803.7695 Impl Bds:29 81
0+ 0 nan nan 632.3038 0.0000 nan 100.00%
0+ 0 nan nan 445.6143 0.0000 nan 100.00%
0+ 0 nan nan 409.0383 0.0000 nan 100.00%
0 2 0.0000 28 409.0383 0.0000 81 100.00%
CPXPARAM_MIP_Cuts_Implied 28
6
Node Left Objective IInf Best_Integer Best_Bound ItCnt Gap
0 0 0.0000 21 0.0000 17
0+ 0 nan nan 667.7910 0.0000 nan 100.00%
0 0 0.0000 21 667.7910 Impl Bds:21 96
0 0 0.0000 21 667.7910 Impl Bds:14 126
0+ 0 nan nan 523.1533 0.0000 nan 100.00%
0+ 0 nan nan 493.3367 0.0000 nan 100.00%
0 2 0.0000 21 493.3367 0.0000 126 100.00%
CPXPARAM_MIP_Cuts_Implied 19
7
Node Left Objective IInf Best_Integer Best_Bound ItCnt Gap
0 0 0.0000 28 0.0000 17
0+ 0 nan nan 850.7058 0.0000 nan 100.00%
0 0 0.0000 28 850.7058 Impl Bds:28 103
0 0 0.0000 28 850.7058 Impl Bds:17 151
0+ 0 nan nan 732.6090 0.0000 nan 100.00%
0+ 0 nan nan 406.7958 0.0000 nan 100.00%
0+ 0 nan nan 41.1936 0.0000 nan 100.00%
0 2 0.0000 28 41.1936 0.0000 151 100.00%
CPXPARAM_MIP_Cuts_Implied 24
8
Node Left Objective IInf Best_Integer Best_Bound ItCnt Gap
0 0 0.0000 28 0.0000 16
0+ 0 nan nan 1285.5458 0.0000 nan 100.00%
0 0 0.0000 28 1285.5458 Impl Bds:28 76
0+ 0 nan nan 1160.0528 0.0000 nan 100.00%
0 0 0.0000 28 1160.0528 Impl Bds:20 118
0+ 0 nan nan 1080.1686 0.0000 nan 100.00%
0+ 0 nan nan 1036.0474 0.0000 nan 100.00%
0 2 0.0000 28 1036.0474 0.0000 118 100.00%
CPXPARAM_MIP_Cuts_Implied 28
9
Node Left Objective IInf Best_Integer Best_Bound ItCnt Gap
0 0 0.0000 28 0.0000 16
0+ 0 nan nan 905.7370 0.0000 nan 100.00%
0 0 0.0000 27 905.7370 Impl Bds:28 86
0 0 0.0000 27 905.7370 Impl Bds:6 98
0+ 0 nan nan 415.6721 0.0000 nan 100.00%
0 2 0.0000 27 415.6721 0.0000 98 100.00%
CPXPARAM_MIP_Cuts_Implied 28
10
Node Left Objective IInf Best_Integer Best_Bound ItCnt Gap
0 0 0.0000 28 0.0000 18
0+ 0 nan nan 1201.3851 0.0000 nan 100.00%
0 0 0.0000 28 1201.3851 Impl Bds:25 75
0 0 0.0000 28 1201.3851 Impl Bds:25 139
0+ 0 nan nan 1130.9746 0.0000 nan 100.00%
0 2 0.0000 28 1130.9746 0.0000 139 100.00%
CPXPARAM_MIP_Cuts_Implied 7
11
Node Left Objective IInf Best_Integer Best_Bound ItCnt Gap
0 0 0.0000 28 0.0000 18
0+ 0 nan nan 995.6573 0.0000 nan 100.00%
0 0 0.0000 28 995.6573 Impl Bds:27 79
0+ 0 nan nan 605.8643 0.0000 nan 100.00%
0 0 0.0000 28 605.8643 Impl Bds:21 129
0+ 0 nan nan 90.0208 0.0000 nan 100.00%
0 2 0.0000 28 90.0208 0.0000 129 100.00%
CPXPARAM_MIP_Cuts_Implied 12
12
Node Left Objective IInf Best_Integer Best_Bound ItCnt Gap
0 0 0.0000 29 0.0000 16
0+ 0 nan nan 1103.5671 0.0000 nan 100.00%
0 0 0.0000 29 1103.5671 Impl Bds:29 93
0+ 0 nan nan 720.2573 0.0000 nan 100.00%
0 0 0.0000 29 720.2573 Impl Bds:22 143
0 2 0.0000 29 720.2573 0.0000 143 100.00%
CPXPARAM_MIP_Cuts_Implied 20
13
Node Left Objective IInf Best_Integer Best_Bound ItCnt Gap
0 0 0.0000 30 0.0000 18
0+ 0 nan nan 885.9934 0.0000 nan 100.00%
0 0 0.0000 29 885.9934 Impl Bds:30 96
0 0 0.0000 29 885.9934 Impl Bds:19 135
0+ 0 nan nan 22.7108 0.0000 nan 100.00%
0 2 0.0000 29 22.7108 0.0000 135 100.00%
CPXPARAM_MIP_Cuts_Implied 29
14
Node Left Objective IInf Best_Integer Best_Bound ItCnt Gap
0 0 0.0000 29 0.0000 18
0+ 0 nan nan 1103.5570 0.0000 nan 100.00%
0 0 0.0000 29 1103.5570 Impl Bds:29 173
0 0 0.0000 29 1103.5570 Impl Bds:14 215
0 2 0.0000 29 1103.5570 0.0000 215 100.00%
CPXPARAM_MIP_Cuts_Implied 24
15
Node Left Objective IInf Best_Integer Best_Bound ItCnt Gap
0 0 0.0000 30 0.0000 18
0+ 0 nan nan 904.1924 0.0000 nan 100.00%
0 0 0.0000 29 904.1924 Impl Bds:30 105
0 0 0.0000 29 904.1924 Impl Bds:19 168
0 0 0.0000 29 904.1924 Impl Bds:6 183
0+ 0 nan nan 688.8398 0.0000 nan 100.00%
0+ 0 nan nan 28.9411 0.0000 nan 100.00%
0 2 0.0000 29 28.9411 0.0000 183 100.00%
CPXPARAM_MIP_Cuts_Implied 25
16
Node Left Objective IInf Best_Integer Best_Bound ItCnt Gap
0 0 0.0000 29 0.0000 16
0+ 0 nan nan 1089.1526 0.0000 nan 100.00%
0 0 0.0000 29 1089.1526 Impl Bds:26 84
0+ 0 nan nan 990.9171 0.0000 nan 100.00%
0 0 0.0000 29 990.9171 Impl Bds:22 143
0 2 0.0000 29 990.9171 0.0000 143 100.00%
CPXPARAM_MIP_Cuts_Implied 24
17
Node Left Objective IInf Best_Integer Best_Bound ItCnt Gap
0 0 0.0000 30 0.0000 18
0+ 0 nan nan 946.0220 0.0000 nan 100.00%
0 0 0.0000 29 946.0220 Impl Bds:30 85
0+ 0 nan nan 675.7143 0.0000 nan 100.00%
0+ 0 nan nan 319.8567 0.0000 nan 100.00%
0 2 0.0000 29 319.8567 0.0000 85 100.00%
CPXPARAM_MIP_Cuts_Implied 28
18
Node Left Objective IInf Best_Integer Best_Bound ItCnt Gap
0 0 0.0000 29 0.0000 17
0+ 0 nan nan 1085.0621 0.0000 nan 100.00%
0 0 0.0000 29 1085.0621 Impl Bds:27 86
0+ 0 nan nan 778.9023 0.0000 nan 100.00%
0 0 0.0000 29 778.9023 Impl Bds:24 146
0+ 0 nan nan 199.7187 0.0000 nan 100.00%
0 2 0.0000 29 199.7187 0.0000 146 100.00%
CPXPARAM_MIP_Cuts_Implied 23
19
Node Left Objective IInf Best_Integer Best_Bound ItCnt Gap
0 0 0.0000 29 0.0000 18
0+ 0 nan nan 957.8379 0.0000 nan 100.00%
0 0 0.0000 29 957.8379 Impl Bds:27 86
0 0 0.0000 29 957.8379 Impl Bds:28 164
0+ 0 nan nan 447.5410 0.0000 nan 100.00%
0+ 0 nan nan 39.3415 0.0000 nan 100.00%
0 2 0.0000 29 39.3415 0.0000 164 100.00%
CPXPARAM_MIP_Cuts_Implied 25
20
Node Left Objective IInf Best_Integer Best_Bound ItCnt Gap
0 0 0.0000 29 0.0000 17
0+ 0 nan nan 878.7294 0.0000 nan 100.00%
0 0 0.0000 29 878.7294 Impl Bds:28 86
0+ 0 nan nan 726.4513 0.0000 nan 100.00%
0+ 0 nan nan 511.4166 0.0000 nan 100.00%
0 2 0.0000 29 511.4166 0.0000 86 100.00%
CPXPARAM_MIP_Cuts_Implied 27
21
Node Left Objective IInf Best_Integer Best_Bound ItCnt Gap
0 0 0.0000 29 0.0000 18
0+ 0 nan nan 606.4076 0.0000 nan 100.00%
0 0 0.0000 29 606.4076 Impl Bds:28 86
0+ 0 nan nan 560.5058 0.0000 nan 100.00%
0+ 0 nan nan 284.6170 0.0000 nan 100.00%
0 2 0.0000 29 284.6170 0.0000 86 100.00%
CPXPARAM_MIP_Cuts_Implied 27
22
Node Left Objective IInf Best_Integer Best_Bound ItCnt Gap
0 0 0.0000 29 0.0000 19
0+ 0 nan nan 901.0984 0.0000 nan 100.00%
0 0 0.0000 28 901.0984 Impl Bds:28 102
0+ 0 nan nan 271.5042 0.0000 nan 100.00%
0+ 0 nan nan 258.5120 0.0000 nan 100.00%
0 2 0.0000 28 258.5120 0.0000 102 100.00%
CPXPARAM_MIP_Cuts_Implied 28
23
Node Left Objective IInf Best_Integer Best_Bound ItCnt Gap
0 0 0.0000 29 0.0000 19
0+ 0 nan nan 599.6998 0.0000 nan 100.00%
0 0 0.0000 29 599.6998 Impl Bds:28 92
0+ 0 nan nan 451.6035 0.0000 nan 100.00%
0+ 0 nan nan 417.8206 0.0000 nan 100.00%
0 2 0.0000 29 417.8206 0.0000 92 100.00%
CPXPARAM_MIP_Cuts_Implied 27
24
Node Left Objective IInf Best_Integer Best_Bound ItCnt Gap
0 0 0.0000 29 0.0000 17
0+ 0 nan nan 939.6644 0.0000 nan 100.00%
0 0 0.0000 29 939.6644 Impl Bds:29 88
0 0 0.0000 29 939.6644 Impl Bds:24 139
0+ 0 nan nan 806.0014 0.0000 nan 100.00%
0+ 0 nan nan 783.5351 0.0000 nan 100.00%
0+ 0 nan nan 690.9524 0.0000 nan 100.00%
0 2 0.0000 29 690.9524 0.0000 139 100.00%
CPXPARAM_MIP_Cuts_Implied 29
25
Node Left Objective IInf Best_Integer Best_Bound ItCnt Gap
0 0 0.0000 29 0.0000 18
0+ 0 nan nan 699.1337 0.0000 nan 100.00%
0 0 0.0000 29 699.1337 Impl Bds:29 81
0 0 0.0000 29 699.1337 Impl Bds:24 130
0+ 0 nan nan 597.3388 0.0000 nan 100.00%
0+ 0 nan nan 22.1954 0.0000 nan 100.00%
0 2 0.0000 29 22.1954 0.0000 130 100.00%
CPXPARAM_MIP_Cuts_Implied 29
26
Node Left Objective IInf Best_Integer Best_Bound ItCnt Gap
0 0 0.0000 29 0.0000 19
0+ 0 nan nan 938.1434 0.0000 nan 100.00%
0 0 0.0000 29 938.1434 Impl Bds:29 123
0 0 0.0000 29 938.1434 Impl Bds:20 174
0+ 0 nan nan 800.6404 0.0000 nan 100.00%
0+ 0 nan nan 705.5070 0.0000 nan 100.00%
0 2 0.0000 29 705.5070 0.0000 174 100.00%
CPXPARAM_MIP_Cuts_Implied 21
27
Node Left Objective IInf Best_Integer Best_Bound ItCnt Gap
0 0 0.0000 29 0.0000 19
0+ 0 nan nan 695.3404 0.0000 nan 100.00%
0 0 0.0000 29 695.3404 Impl Bds:29 102
0 0 0.0000 29 695.3404 Impl Bds:23 155
0+ 0 nan nan 319.8431 0.0000 nan 100.00%
0+ 0 nan nan 46.9443 0.0000 nan 100.00%
0 2 0.0000 29 46.9443 0.0000 155 100.00%
CPXPARAM_MIP_Cuts_Implied 30
28
Node Left Objective IInf Best_Integer Best_Bound ItCnt Gap
0 0 0.0000 30 0.0000 16
0+ 0 nan nan 1316.0757 0.0000 nan 100.00%
0 0 0.0000 29 1316.0757 Impl Bds:30 117
0 0 0.0000 29 1316.0757 Impl Bds:8 133
0+ 0 nan nan 1164.9889 0.0000 nan 100.00%
0 2 0.0000 29 1164.9889 0.0000 133 100.00%
CPXPARAM_MIP_Cuts_Implied 30
29
Node Left Objective IInf Best_Integer Best_Bound ItCnt Gap
0 0 0.0000 28 0.0000 16
0+ 0 nan nan 968.9340 0.0000 nan 100.00%
0 0 0.0000 27 968.9340 Impl Bds:28 90
0 0 0.0000 27 968.9340 Impl Bds:7 104
0+ 0 nan nan 949.2701 0.0000 nan 100.00%
0+ 0 nan nan 474.6429 0.0000 nan 100.00%
0 2 0.0000 27 474.6429 0.0000 104 100.00%
CPXPARAM_MIP_Cuts_Implied 28
30
Node Left Objective IInf Best_Integer Best_Bound ItCnt Gap
0 0 0.0000 29 0.0000 17
0+ 0 nan nan 1312.7512 0.0000 nan 100.00%
0 0 0.0000 28 1312.7512 Impl Bds:29 115
0+ 0 nan nan 1175.6529 0.0000 nan 100.00%
0 0 0.0000 28 1175.6529 Impl Bds:3 121
0+ 0 nan nan 507.1649 0.0000 nan 100.00%
0 2 0.0000 28 507.1649 0.0000 121 100.00%
CPXPARAM_MIP_Cuts_Implied 24
31
Node Left Objective IInf Best_Integer Best_Bound ItCnt Gap
0 0 0.0000 26 0.0000 17
0+ 0 nan nan 709.8381 0.0000 nan 100.00%
0 0 0.0000 25 709.8381 Impl Bds:26 75
0+ 0 nan nan 305.9335 0.0000 nan 100.00%
0+ 0 nan nan 303.5105 0.0000 nan 100.00%
0 2 0.0000 25 303.5105 0.0000 75 100.00%
CPXPARAM_MIP_Cuts_Implied 24
32
Node Left Objective IInf Best_Integer Best_Bound ItCnt Gap
0 0 0.0000 29 0.0000 17
0+ 0 nan nan 1030.0515 0.0000 nan 100.00%
0 0 0.0000 29 1030.0515 Impl Bds:27 113
0 0 0.0000 29 1030.0515 Impl Bds:9 141
0+ 0 nan nan 801.1518 0.0000 nan 100.00%
0 2 0.0000 29 801.1518 0.0000 141 100.00%
CPXPARAM_MIP_Cuts_Implied 23
33
Node Left Objective IInf Best_Integer Best_Bound ItCnt Gap
0 0 0.0000 28 0.0000 18
0+ 0 nan nan 717.9699 0.0000 nan 100.00%
0 0 0.0000 28 717.9699 Impl Bds:28 80
0 0 0.0000 28 717.9699 Impl Bds:5 90
0+ 0 nan nan 170.5105 0.0000 nan 100.00%
0 2 0.0000 28 170.5105 0.0000 90 100.00%
CPXPARAM_MIP_Cuts_Implied 29
34
Node Left Objective IInf Best_Integer Best_Bound ItCnt Gap
0 0 0.0000 29 0.0000 18
0+ 0 nan nan 1021.8941 0.0000 nan 100.00%
0 0 0.0000 29 1021.8941 Impl Bds:29 108
0+ 0 nan nan 891.7650 0.0000 nan 100.00%
0 0 0.0000 29 891.7650 Impl Bds:17 160
0+ 0 nan nan 774.6617 0.0000 nan 100.00%
0+ 0 nan nan 723.2137 0.0000 nan 100.00%
0 2 0.0000 29 723.2137 0.0000 160 100.00%
CPXPARAM_MIP_Cuts_Implied 16
35
Node Left Objective IInf Best_Integer Best_Bound ItCnt Gap
0 0 0.0000 29 0.0000 19
0+ 0 nan nan 827.1110 0.0000 nan 100.00%
0 0 0.0000 29 827.1110 Impl Bds:29 85
0+ 0 nan nan 814.4673 0.0000 nan 100.00%
0+ 0 nan nan 632.8016 0.0000 nan 100.00%
0+ 0 nan nan 326.9552 0.0000 nan 100.00%
0 2 0.0000 29 326.9552 0.0000 85 100.00%
CPXPARAM_MIP_Cuts_Implied 25
36
Node Left Objective IInf Best_Integer Best_Bound ItCnt Gap
0 0 0.0000 29 0.0000 16
0+ 0 nan nan 894.7095 0.0000 nan 100.00%
0 0 0.0000 28 894.7095 Impl Bds:29 96
0+ 0 nan nan 752.4504 0.0000 nan 100.00%
0+ 0 nan nan 376.7321 0.0000 nan 100.00%
0 2 0.0000 28 376.7321 0.0000 96 100.00%
CPXPARAM_MIP_Cuts_Implied 27
37
Node Left Objective IInf Best_Integer Best_Bound ItCnt Gap
0 0 0.0000 28 0.0000 17
0+ 0 nan nan 593.1735 0.0000 nan 100.00%
0 0 0.0000 27 593.1735 Impl Bds:28 82
0 0 0.0000 27 593.1735 Impl Bds:3 89
0+ 0 nan nan 214.6568 0.0000 nan 100.00%
0 2 0.0000 27 214.6568 0.0000 89 100.00%
CPXPARAM_MIP_Cuts_Implied 28
38
Node Left Objective IInf Best_Integer Best_Bound ItCnt Gap
0 0 0.0000 28 0.0000 17
0+ 0 nan nan 919.5293 0.0000 nan 100.00%
0 0 0.0000 27 919.5293 Impl Bds:28 90
0 0 0.0000 27 919.5293 Impl Bds:4 98
0+ 0 nan nan 555.9362 0.0000 nan 100.00%
0 2 0.0000 27 555.9362 0.0000 98 100.00%
CPXPARAM_MIP_Cuts_Implied 28
39
Node Left Objective IInf Best_Integer Best_Bound ItCnt Gap
0 0 0.0000 28 0.0000 17
0+ 0 nan nan 624.0818 0.0000 nan 100.00%
0 0 0.0000 27 624.0818 Impl Bds:28 84
0+ 0 nan nan 532.1241 0.0000 nan 100.00%
0+ 0 nan nan 369.8673 0.0000 nan 100.00%
0 2 0.0000 27 369.8673 0.0000 84 100.00%
CPXPARAM_MIP_Cuts_Implied 25
